\ Date: 1921.10
\ Cycle: 01
\ Solver: XA

\ objective function 
Maximize
+ 6.0 x
+ 6.0 y
+ 6.0 z

\ constraint
Subject To
g1:  + x + y + z <= 100.0
g2:  + x = 29.0
g3:  + y = 38.0

\ dvar
Bounds

End




\ objective value:   600.0
